142757
29, 55, 97, 8, 106, 42, 81, 19, 68, 99, 50, 34, 83, 80, 57, 89, 93, 12, 92, 23, 9, 26, 14, 74, 102, 24, 76, 58, 1, 87, 44, 66, 59, 10, 27, 28, 43, 79, 91, 60, 96, 15, 4, 61, 47, 103, 35, 75, 7, 84, 53, 33, 2, 73, 85, 48, 36, 71, 54, 95, 67, 41, 11, 104, 38, 105, 101, 3, 94, 78, 70, 37, 39, 49, 18, 32, 63, 51, 100, 82, 72, 45, 25, 62, 22, 86, 46, 77, 21, 17, 64, 90, 16, 56, 20, 40, 6, 88, 69, 13, 98, 65, 31, 52, 5, 30
